NAME icon_pre
ROWS
 N  OBJ
 E  R4      
 E  R5      
 L  R9      
 L  R10     
 L  R11     
 L  R12     
 L  R13     
 L  R14     
 L  R15     
 L  R16     
 L  R17     
 L  R22     
 L  R23     
 L  R24     
 L  R25     
 L  R26     
COLUMNS
    x[0,0,1]  R4        1
    x[0,0,1]  R9        2610
    x[0,0,1]  R10       2610
    x[0,0,1]  R11       2610
    x[0,0,2]  R4        1
    x[0,0,2]  R9        2610
    x[0,0,2]  R10       2610
    x[0,0,2]  R11       2610
    x[0,0,2]  R12       2610
    x[0,0,3]  R4        1
    x[0,0,3]  R9        2610
    x[0,0,3]  R10       2610
    x[0,0,3]  R11       2610
    x[0,0,3]  R12       2610
    x[0,0,3]  R13       2610
    x[0,0,4]  R4        1
    x[0,0,4]  R10       2610
    x[0,0,4]  R11       2610
    x[0,0,4]  R12       2610
    x[0,0,4]  R13       2610
    x[0,0,4]  R14       2610
    x[0,0,5]  R4        1
    x[0,0,5]  R11       2610
    x[0,0,5]  R12       2610
    x[0,0,5]  R13       2610
    x[0,0,5]  R14       2610
    x[0,0,5]  R15       2610
    x[0,0,6]  R4        1
    x[0,0,6]  R12       2610
    x[0,0,6]  R13       2610
    x[0,0,6]  R14       2610
    x[0,0,6]  R15       2610
    x[0,0,6]  R16       2610
    x[0,0,7]  R4        1
    x[0,0,7]  R13       2610
    x[0,0,7]  R14       2610
    x[0,0,7]  R15       2610
    x[0,0,7]  R16       2610
    x[0,0,7]  R17       2610
    x[1,0,4]  R5        1
    x[1,0,4]  R10       2361
    x[1,0,4]  R11       2361
    x[1,0,4]  R12       2361
    x[1,0,4]  R13       2361
    x[1,0,4]  R14       2361
    x[1,0,4]  R15       2361
    x[1,0,4]  R16       2361
    x[1,0,4]  R17       2361
    x[1,0,5]  R5        1
    x[1,0,5]  R11       2361
    x[1,0,5]  R12       2361
    x[1,0,5]  R13       2361
    x[1,0,5]  R14       2361
    x[1,0,5]  R15       2361
    x[1,0,5]  R16       2361
    x[1,0,5]  R17       2361
    x[1,0,5]  R22       2361
    x[1,0,6]  R5        1
    x[1,0,6]  R12       2361
    x[1,0,6]  R13       2361
    x[1,0,6]  R14       2361
    x[1,0,6]  R15       2361
    x[1,0,6]  R16       2361
    x[1,0,6]  R17       2361
    x[1,0,6]  R22       2361
    x[1,0,6]  R23       2361
    x[1,0,7]  R5        1
    x[1,0,7]  R13       2361
    x[1,0,7]  R14       2361
    x[1,0,7]  R15       2361
    x[1,0,7]  R16       2361
    x[1,0,7]  R17       2361
    x[1,0,7]  R22       2361
    x[1,0,7]  R23       2361
    x[1,0,7]  R24       2361
    x[1,0,8]  R5        1
    x[1,0,8]  R14       2361
    x[1,0,8]  R15       2361
    x[1,0,8]  R16       2361
    x[1,0,8]  R17       2361
    x[1,0,8]  R22       2361
    x[1,0,8]  R23       2361
    x[1,0,8]  R24       2361
    x[1,0,8]  R25       2361
    x[1,0,9]  R5        1
    x[1,0,9]  R15       2361
    x[1,0,9]  R16       2361
    x[1,0,9]  R17       2361
    x[1,0,9]  R22       2361
    x[1,0,9]  R23       2361
    x[1,0,9]  R24       2361
    x[1,0,9]  R25       2361
    x[1,0,9]  R26       2361
    x[1,0,10]  R5        1
    x[1,0,10]  R16       2361
    x[1,0,10]  R17       2361
    x[1,0,10]  R22       2361
    x[1,0,10]  R23       2361
    x[1,0,10]  R24       2361
    x[1,0,10]  R25       2361
    x[1,0,10]  R26       2361
    x[1,0,11]  R5        1
    x[1,0,11]  R17       2361
    x[1,0,11]  R22       2361
    x[1,0,11]  R23       2361
    x[1,0,11]  R24       2361
    x[1,0,11]  R25       2361
    x[1,0,11]  R26       2361
RHS
    RHS1      R4        1
    RHS1      R5        1
    RHS1      R9        5481
    RHS1      R10       5481
    RHS1      R11       5481
    RHS1      R12       5481
    RHS1      R13       5481
    RHS1      R14       5481
    RHS1      R15       5481
    RHS1      R16       5481
    RHS1      R17       5481
    RHS1      R22       5481
    RHS1      R23       5481
    RHS1      R24       5481
    RHS1      R25       5481
    RHS1      R26       5481
BOUNDS
 UP BND1      x[0,0,1]  1
 UP BND1      x[0,0,2]  1
 UP BND1      x[0,0,3]  1
 UP BND1      x[0,0,4]  1
 UP BND1      x[0,0,5]  1
 UP BND1      x[0,0,6]  1
 UP BND1      x[0,0,7]  1
 UP BND1      x[1,0,4]  1
 UP BND1      x[1,0,5]  1
 UP BND1      x[1,0,6]  1
 UP BND1      x[1,0,7]  1
 UP BND1      x[1,0,8]  1
 UP BND1      x[1,0,9]  1
 UP BND1      x[1,0,10]  1
 UP BND1      x[1,0,11]  1
ENDATA
